80
78
90
32
10
15
77
40
59
27
89
1
3
99
63
66
71
41
93
30
70
5
12
46
76
22
16
55
91
84
56
20
86
25
92
64
47
4
31
38
37
82
26
67
87
8
28
85
57
19
61
98
17
6
79
72
60
33
58
69
53
0
42
2
51
24
44
43
13
54
50
35
52
34
18
97
62
96
95
65
11
68
39
21
74
48
83
81
45
73
94
14
36
29
49
9
7
23
88
75
